* ENCODING=ISO-8859-1
NAME          CPLEX
ROWS
 N  obj1    
 G  c1      
 G  c2      
 G  c3      
 G  c4      
 G  c5      
 G  c6      
 G  c7      
 G  c8      
 G  c9      
 G  c10     
 G  c11     
 G  c12     
 G  c13     
 G  c14     
 G  c15     
 G  c16     
 G  c17     
 G  c18     
 G  c19     
 G  c20     
 G  c21     
 G  c22     
 G  c23     
 G  c24     
 G  c25     
COLUMNS
    MARK0000  'MARKER'                 'INTORG'
    x1        obj1                            1
    x1        c7                            944
    x1        c10                           279
    x2        obj1                            1
    x2        c17                           126
    x3        obj1                            1
    x3        c3                            679
    x3        c5                            116
    x4        obj1                            1
    x4        c11                           126
    x4        c12                           724
    x4        c14                           138
    x4        c18                           361
    x5        obj1                            1
    x5        c25                           574
    x6        obj1                            1
    x6        c8                            507
    x7        obj1                            1
    x7        c12                           233
    x7        c21                           920
    x8        obj1                            1
    x8        c1                            293
    x8        c9                            414
    x8        c13                           215
    x8        c18                           539
    x8        c19                           685
    x8        c22                           910
    x9        obj1                            1
    x9        c7                            136
    x9        c12                           600
    x9        c18                           982
    x10       obj1                            1
    x10       c8                            230
    x10       c10                           984
    x10       c25                           943
    x11       obj1                            1
    x11       c4                            793
    x11       c14                           970
    x12       obj1                            1
    x12       c11                           865
    x13       obj1                            1
    x13       c11                           953
    x13       c17                           851
    x14       obj1                            1
    x15       obj1                            1
    x15       c3                            633
    x15       c18                           870
    x16       obj1                            1
    x16       c4                            957
    x16       c13                           457
    x16       c23                           286
    x17       obj1                            1
    x17       c24                           509
    x18       obj1                            1
    x18       c2                            998
    x18       c4                            684
    x18       c17                           452
    x18       c21                           408
    x18       c24                           718
    x19       obj1                            1
    x19       c12                           500
    x20       obj1                            1
    x20       c6                            174
    x20       c19                           973
    x21       obj1                            1
    x21       c13                           751
    x22       obj1                            1
    x22       c9                            736
    x22       c11                           570
    x22       c14                           785
    x22       c22                           715
    x23       obj1                            1
    x23       c4                            961
    x23       c10                           483
    x23       c13                           514
    x23       c19                           456
    x23       c21                           115
    x24       obj1                            1
    x24       c3                            618
    x25       obj1                            1
    x25       c2                            810
    x25       c3                            461
    x25       c5                            901
    x25       c11                           580
    x26       obj1                            1
    x27       obj1                            1
    x27       c4                            973
    x27       c6                            999
    x27       c15                           984
    x27       c24                           587
    x28       obj1                            1
    x28       c10                           327
    x28       c12                           329
    x28       c18                           616
    x29       obj1                            1
    x29       c4                            286
    x29       c25                           236
    x30       obj1                            1
    x30       c10                           321
    x30       c22                           455
    x30       c23                           867
    x31       obj1                            1
    x31       c6                            864
    x31       c10                           785
    x32       obj1                            1
    x32       c1                            950
    x32       c13                           865
    x32       c16                           298
    x33       obj1                            1
    x33       c14                           495
    x33       c15                           661
    x34       obj1                            1
    x34       c1                            979
    x34       c3                            875
    x34       c21                           900
    x34       c22                           751
    x34       c25                           702
    x35       obj1                            1
    x35       c16                           886
    x35       c20                           363
    x36       obj1                            1
    x36       c18                           739
    x36       c20                           732
    x36       c21                           442
    x36       c22                           249
    x36       c25                           503
    x37       obj1                            1
    x37       c8                            578
    x38       obj1                            1
    x38       c5                            874
    x38       c6                            778
    x38       c13                           911
    x38       c17                           892
    x39       obj1                            1
    x39       c15                           238
    x39       c19                           364
    x39       c20                           856
    x40       obj1                            1
    x40       c24                           608
    x40       c25                           544
    x41       obj1                            1
    x41       c11                           167
    x41       c16                           662
    x41       c21                           739
    x42       obj1                            1
    x42       c11                           971
    x42       c18                           486
    x42       c24                           369
    x42       c25                           522
    x43       obj1                            1
    x43       c9                            295
    x43       c15                           337
    x43       c22                           919
    x44       obj1                            1
    x44       c19                           372
    x45       obj1                            1
    x45       c20                           389
    x45       c22                           746
    x45       c24                           239
    x46       obj1                            1
    x46       c2                            915
    x46       c7                            655
    x46       c12                           221
    x46       c21                           673
    x47       obj1                            1
    x47       c4                            260
    x47       c17                           380
    x47       c23                           880
    x48       obj1                            1
    x49       obj1                            1
    x49       c20                           816
    x50       obj1                            1
    x50       c8                            911
    x50       c15                           749
    x50       c19                           458
    MARK0001  'MARKER'                 'INTEND'
RHS
    rhs       c1                           1111
    rhs       c2                           1362
    rhs       c3                           1633
    rhs       c4                           2457
    rhs       c5                            946
    rhs       c6                           1408
    rhs       c7                            868
    rhs       c8                           1113
    rhs       c9                            723
    rhs       c10                          1590
    rhs       c11                          2116
    rhs       c12                          1304
    rhs       c13                          1857
    rhs       c14                          1194
    rhs       c15                          1485
    rhs       c16                           923
    rhs       c17                          1351
    rhs       c18                          2297
    rhs       c19                          1654
    rhs       c20                          1578
    rhs       c21                          2099
    rhs       c22                          2373
    rhs       c23                          1017
    rhs       c24                          1515
    rhs       c25                          2012
BOUNDS
 LI bnd       x1        0
 LI bnd       x2        0
 LI bnd       x3        0
 LI bnd       x4        0
 LI bnd       x5        0
 LI bnd       x6        0
 LI bnd       x7        0
 LI bnd       x8        0
 LI bnd       x9        0
 LI bnd       x10       0
 LI bnd       x11       0
 LI bnd       x12       0
 LI bnd       x13       0
 LI bnd       x14       0
 LI bnd       x15       0
 LI bnd       x16       0
 LI bnd       x17       0
 LI bnd       x18       0
 LI bnd       x19       0
 LI bnd       x20       0
 LI bnd       x21       0
 LI bnd       x22       0
 LI bnd       x23       0
 LI bnd       x24       0
 LI bnd       x25       0
 LI bnd       x26       0
 LI bnd       x27       0
 LI bnd       x28       0
 LI bnd       x29       0
 LI bnd       x30       0
 LI bnd       x31       0
 LI bnd       x32       0
 LI bnd       x33       0
 LI bnd       x34       0
 LI bnd       x35       0
 LI bnd       x36       0
 LI bnd       x37       0
 LI bnd       x38       0
 LI bnd       x39       0
 LI bnd       x40       0
 LI bnd       x41       0
 LI bnd       x42       0
 LI bnd       x43       0
 LI bnd       x44       0
 LI bnd       x45       0
 LI bnd       x46       0
 LI bnd       x47       0
 LI bnd       x48       0
 LI bnd       x49       0
 LI bnd       x50       0
ENDATA
